c description: Graph pigeonhole principle formula on fast_gnp_random_graph(10,20,0.9)
c generator: CNFgen (0.9.0)
c copyright: (C) 2012-2020 Massimo Lauria <massimo.lauria@uniroma1.it>
c url: https://massimolauria.net/cnfgen
c
p cnf 185 782
1 2 3 4 5 6 7 8 9 10 11 12 13 14 15 16 17 18 0
19 20 21 22 23 24 25 26 27 28 29 30 31 32 33 34 35 36 0
37 38 39 40 41 42 43 44 45 46 47 48 49 50 51 52 53 54 0
55 56 57 58 59 60 61 62 63 64 65 66 67 68 69 70 71 72 73 0
74 75 76 77 78 79 80 81 82 83 84 85 86 87 88 89 90 91 92 93 0
94 95 96 97 98 99 100 101 102 103 104 105 106 107 108 109 110 111 0
112 113 114 115 116 117 118 119 120 121 122 123 124 125 126 127 128 129 130 0
131 132 133 134 135 136 137 138 139 140 141 142 143 144 145 146 147 0
148 149 150 151 152 153 154 155 156 157 158 159 160 161 162 163 164 165 166 0
167 168 169 170 171 172 173 174 175 176 177 178 179 180 181 182 183 184 185 0
-1 -19 0
-1 -37 0
-1 -55 0
-1 -74 0
-1 -94 0
-1 -131 0
-1 -148 0
-1 -167 0
-19 -37 0
-19 -55 0
-19 -74 0
-19 -94 0
-19 -131 0
-19 -148 0
-19 -167 0
-37 -55 0
-37 -74 0
-37 -94 0
-37 -131 0
-37 -148 0
-37 -167 0
-55 -74 0
-55 -94 0
-55 -131 0
-55 -148 0
-55 -167 0
-74 -94 0
-74 -131 0
-74 -148 0
-74 -167 0
-94 -131 0
-94 -148 0
-94 -167 0
-131 -148 0
-131 -167 0
-148 -167 0
-2 -20 0
-2 -38 0
-2 -56 0
-2 -75 0
-2 -95 0
-2 -112 0
-2 -132 0
-2 -149 0
-2 -168 0
-20 -38 0
-20 -56 0
-20 -75 0
-20 -95 0
-20 -112 0
-20 -132 0
-20 -149 0
-20 -168 0
-38 -56 0
-38 -75 0
-38 -95 0
-38 -112 0
-38 -132 0
-38 -149 0
-38 -168 0
-56 -75 0
-56 -95 0
-56 -112 0
-56 -132 0
-56 -149 0
-56 -168 0
-75 -95 0
-75 -112 0
-75 -132 0
-75 -149 0
-75 -168 0
-95 -112 0
-95 -132 0
-95 -149 0
-95 -168 0
-112 -132 0
-112 -149 0
-112 -168 0
-132 -149 0
-132 -168 0
-149 -168 0
-3 -21 0
-3 -39 0
-3 -57 0
-3 -76 0
-3 -96 0
-3 -113 0
-3 -133 0
-3 -150 0
-3 -169 0
-21 -39 0
-21 -57 0
-21 -76 0
-21 -96 0
-21 -113 0
-21 -133 0
-21 -150 0
-21 -169 0
-39 -57 0
-39 -76 0
-39 -96 0
-39 -113 0
-39 -133 0
-39 -150 0
-39 -169 0
-57 -76 0
-57 -96 0
-57 -113 0
-57 -133 0
-57 -150 0
-57 -169 0
-76 -96 0
-76 -113 0
-76 -133 0
-76 -150 0
-76 -169 0
-96 -113 0
-96 -133 0
-96 -150 0
-96 -169 0
-113 -133 0
-113 -150 0
-113 -169 0
-133 -150 0
-133 -169 0
-150 -169 0
-22 -40 0
-22 -58 0
-22 -77 0
-22 -114 0
-22 -151 0
-22 -170 0
-40 -58 0
-40 -77 0
-40 -114 0
-40 -151 0
-40 -170 0
-58 -77 0
-58 -114 0
-58 -151 0
-58 -170 0
-77 -114 0
-77 -151 0
-77 -170 0
-114 -151 0
-114 -170 0
-151 -170 0
-4 -23 0
-4 -41 0
-4 -59 0
-4 -78 0
-4 -97 0
-4 -115 0
-4 -134 0
-4 -152 0
-4 -171 0
-23 -41 0
-23 -59 0
-23 -78 0
-23 -97 0
-23 -115 0
-23 -134 0
-23 -152 0
-23 -171 0
-41 -59 0
-41 -78 0
-41 -97 0
-41 -115 0
-41 -134 0
-41 -152 0
-41 -171 0
-59 -78 0
-59 -97 0
-59 -115 0
-59 -134 0
-59 -152 0
-59 -171 0
-78 -97 0
-78 -115 0
-78 -134 0
-78 -152 0
-78 -171 0
-97 -115 0
-97 -134 0
-97 -152 0
-97 -171 0
-115 -134 0
-115 -152 0
-115 -171 0
-134 -152 0
-134 -171 0
-152 -171 0
-5 -24 0
-5 -42 0
-5 -60 0
-5 -79 0
-5 -98 0
-5 -116 0
-5 -135 0
-5 -153 0
-5 -172 0
-24 -42 0
-24 -60 0
-24 -79 0
-24 -98 0
-24 -116 0
-24 -135 0
-24 -153 0
-24 -172 0
-42 -60 0
-42 -79 0
-42 -98 0
-42 -116 0
-42 -135 0
-42 -153 0
-42 -172 0
-60 -79 0
-60 -98 0
-60 -116 0
-60 -135 0
-60 -153 0
-60 -172 0
-79 -98 0
-79 -116 0
-79 -135 0
-79 -153 0
-79 -172 0
-98 -116 0
-98 -135 0
-98 -153 0
-98 -172 0
-116 -135 0
-116 -153 0
-116 -172 0
-135 -153 0
-135 -172 0
-153 -172 0
-6 -25 0
-6 -43 0
-6 -61 0
-6 -80 0
-6 -99 0
-6 -117 0
-6 -136 0
-6 -154 0
-6 -173 0
-25 -43 0
-25 -61 0
-25 -80 0
-25 -99 0
-25 -117 0
-25 -136 0
-25 -154 0
-25 -173 0
-43 -61 0
-43 -80 0
-43 -99 0
-43 -117 0
-43 -136 0
-43 -154 0
-43 -173 0
-61 -80 0
-61 -99 0
-61 -117 0
-61 -136 0
-61 -154 0
-61 -173 0
-80 -99 0
-80 -117 0
-80 -136 0
-80 -154 0
-80 -173 0
-99 -117 0
-99 -136 0
-99 -154 0
-99 -173 0
-117 -136 0
-117 -154 0
-117 -173 0
-136 -154 0
-136 -173 0
-154 -173 0
-7 -26 0
-7 -44 0
-7 -62 0
-7 -81 0
-7 -100 0
-7 -118 0
-7 -137 0
-7 -155 0
-7 -174 0
-26 -44 0
-26 -62 0
-26 -81 0
-26 -100 0
-26 -118 0
-26 -137 0
-26 -155 0
-26 -174 0
-44 -62 0
-44 -81 0
-44 -100 0
-44 -118 0
-44 -137 0
-44 -155 0
-44 -174 0
-62 -81 0
-62 -100 0
-62 -118 0
-62 -137 0
-62 -155 0
-62 -174 0
-81 -100 0
-81 -118 0
-81 -137 0
-81 -155 0
-81 -174 0
-100 -118 0
-100 -137 0
-100 -155 0
-100 -174 0
-118 -137 0
-118 -155 0
-118 -174 0
-137 -155 0
-137 -174 0
-155 -174 0
-8 -45 0
-8 -63 0
-8 -82 0
-8 -101 0
-8 -119 0
-8 -156 0
-8 -175 0
-45 -63 0
-45 -82 0
-45 -101 0
-45 -119 0
-45 -156 0
-45 -175 0
-63 -82 0
-63 -101 0
-63 -119 0
-63 -156 0
-63 -175 0
-82 -101 0
-82 -119 0
-82 -156 0
-82 -175 0
-101 -119 0
-101 -156 0
-101 -175 0
-119 -156 0
-119 -175 0
-156 -175 0
-27 -46 0
-27 -64 0
-27 -83 0
-27 -120 0
-27 -138 0
-27 -157 0
-27 -176 0
-46 -64 0
-46 -83 0
-46 -120 0
-46 -138 0
-46 -157 0
-46 -176 0
-64 -83 0
-64 -120 0
-64 -138 0
-64 -157 0
-64 -176 0
-83 -120 0
-83 -138 0
-83 -157 0
-83 -176 0
-120 -138 0
-120 -157 0
-120 -176 0
-138 -157 0
-138 -176 0
-157 -176 0
-9 -28 0
-9 -47 0
-9 -65 0
-9 -84 0
-9 -102 0
-9 -121 0
-9 -139 0
-9 -158 0
-9 -177 0
-28 -47 0
-28 -65 0
-28 -84 0
-28 -102 0
-28 -121 0
-28 -139 0
-28 -158 0
-28 -177 0
-47 -65 0
-47 -84 0
-47 -102 0
-47 -121 0
-47 -139 0
-47 -158 0
-47 -177 0
-65 -84 0
-65 -102 0
-65 -121 0
-65 -139 0
-65 -158 0
-65 -177 0
-84 -102 0
-84 -121 0
-84 -139 0
-84 -158 0
-84 -177 0
-102 -121 0
-102 -139 0
-102 -158 0
-102 -177 0
-121 -139 0
-121 -158 0
-121 -177 0
-139 -158 0
-139 -177 0
-158 -177 0
-10 -29 0
-10 -48 0
-10 -66 0
-10 -85 0
-10 -103 0
-10 -122 0
-10 -140 0
-10 -159 0
-10 -178 0
-29 -48 0
-29 -66 0
-29 -85 0
-29 -103 0
-29 -122 0
-29 -140 0
-29 -159 0
-29 -178 0
-48 -66 0
-48 -85 0
-48 -103 0
-48 -122 0
-48 -140 0
-48 -159 0
-48 -178 0
-66 -85 0
-66 -103 0
-66 -122 0
-66 -140 0
-66 -159 0
-66 -178 0
-85 -103 0
-85 -122 0
-85 -140 0
-85 -159 0
-85 -178 0
-103 -122 0
-103 -140 0
-103 -159 0
-103 -178 0
-122 -140 0
-122 -159 0
-122 -178 0
-140 -159 0
-140 -178 0
-159 -178 0
-11 -30 0
-11 -49 0
-11 -67 0
-11 -86 0
-11 -104 0
-11 -123 0
-11 -141 0
-11 -160 0
-30 -49 0
-30 -67 0
-30 -86 0
-30 -104 0
-30 -123 0
-30 -141 0
-30 -160 0
-49 -67 0
-49 -86 0
-49 -104 0
-49 -123 0
-49 -141 0
-49 -160 0
-67 -86 0
-67 -104 0
-67 -123 0
-67 -141 0
-67 -160 0
-86 -104 0
-86 -123 0
-86 -141 0
-86 -160 0
-104 -123 0
-104 -141 0
-104 -160 0
-123 -141 0
-123 -160 0
-141 -160 0
-12 -31 0
-12 -50 0
-12 -68 0
-12 -87 0
-12 -105 0
-12 -124 0
-12 -142 0
-12 -161 0
-12 -179 0
-31 -50 0
-31 -68 0
-31 -87 0
-31 -105 0
-31 -124 0
-31 -142 0
-31 -161 0
-31 -179 0
-50 -68 0
-50 -87 0
-50 -105 0
-50 -124 0
-50 -142 0
-50 -161 0
-50 -179 0
-68 -87 0
-68 -105 0
-68 -124 0
-68 -142 0
-68 -161 0
-68 -179 0
-87 -105 0
-87 -124 0
-87 -142 0
-87 -161 0
-87 -179 0
-105 -124 0
-105 -142 0
-105 -161 0
-105 -179 0
-124 -142 0
-124 -161 0
-124 -179 0
-142 -161 0
-142 -179 0
-161 -179 0
-13 -32 0
-13 -69 0
-13 -88 0
-13 -106 0
-13 -125 0
-13 -143 0
-13 -180 0
-32 -69 0
-32 -88 0
-32 -106 0
-32 -125 0
-32 -143 0
-32 -180 0
-69 -88 0
-69 -106 0
-69 -125 0
-69 -143 0
-69 -180 0
-88 -106 0
-88 -125 0
-88 -143 0
-88 -180 0
-106 -125 0
-106 -143 0
-106 -180 0
-125 -143 0
-125 -180 0
-143 -180 0
-14 -33 0
-14 -51 0
-14 -70 0
-14 -89 0
-14 -107 0
-14 -126 0
-14 -144 0
-14 -162 0
-14 -181 0
-33 -51 0
-33 -70 0
-33 -89 0
-33 -107 0
-33 -126 0
-33 -144 0
-33 -162 0
-33 -181 0
-51 -70 0
-51 -89 0
-51 -107 0
-51 -126 0
-51 -144 0
-51 -162 0
-51 -181 0
-70 -89 0
-70 -107 0
-70 -126 0
-70 -144 0
-70 -162 0
-70 -181 0
-89 -107 0
-89 -126 0
-89 -144 0
-89 -162 0
-89 -181 0
-107 -126 0
-107 -144 0
-107 -162 0
-107 -181 0
-126 -144 0
-126 -162 0
-126 -181 0
-144 -162 0
-144 -181 0
-162 -181 0
-15 -34 0
-15 -52 0
-15 -90 0
-15 -108 0
-15 -127 0
-15 -145 0
-15 -163 0
-15 -182 0
-34 -52 0
-34 -90 0
-34 -108 0
-34 -127 0
-34 -145 0
-34 -163 0
-34 -182 0
-52 -90 0
-52 -108 0
-52 -127 0
-52 -145 0
-52 -163 0
-52 -182 0
-90 -108 0
-90 -127 0
-90 -145 0
-90 -163 0
-90 -182 0
-108 -127 0
-108 -145 0
-108 -163 0
-108 -182 0
-127 -145 0
-127 -163 0
-127 -182 0
-145 -163 0
-145 -182 0
-163 -182 0
-16 -35 0
-16 -71 0
-16 -91 0
-16 -109 0
-16 -128 0
-16 -146 0
-16 -164 0
-16 -183 0
-35 -71 0
-35 -91 0
-35 -109 0
-35 -128 0
-35 -146 0
-35 -164 0
-35 -183 0
-71 -91 0
-71 -109 0
-71 -128 0
-71 -146 0
-71 -164 0
-71 -183 0
-91 -109 0
-91 -128 0
-91 -146 0
-91 -164 0
-91 -183 0
-109 -128 0
-109 -146 0
-109 -164 0
-109 -183 0
-128 -146 0
-128 -164 0
-128 -183 0
-146 -164 0
-146 -183 0
-164 -183 0
-17 -53 0
-17 -72 0
-17 -92 0
-17 -110 0
-17 -129 0
-17 -165 0
-17 -184 0
-53 -72 0
-53 -92 0
-53 -110 0
-53 -129 0
-53 -165 0
-53 -184 0
-72 -92 0
-72 -110 0
-72 -129 0
-72 -165 0
-72 -184 0
-92 -110 0
-92 -129 0
-92 -165 0
-92 -184 0
-110 -129 0
-110 -165 0
-110 -184 0
-129 -165 0
-129 -184 0
-165 -184 0
-18 -36 0
-18 -54 0
-18 -73 0
-18 -93 0
-18 -111 0
-18 -130 0
-18 -147 0
-18 -166 0
-18 -185 0
-36 -54 0
-36 -73 0
-36 -93 0
-36 -111 0
-36 -130 0
-36 -147 0
-36 -166 0
-36 -185 0
-54 -73 0
-54 -93 0
-54 -111 0
-54 -130 0
-54 -147 0
-54 -166 0
-54 -185 0
-73 -93 0
-73 -111 0
-73 -130 0
-73 -147 0
-73 -166 0
-73 -185 0
-93 -111 0
-93 -130 0
-93 -147 0
-93 -166 0
-93 -185 0
-111 -130 0
-111 -147 0
-111 -166 0
-111 -185 0
-130 -147 0
-130 -166 0
-130 -185 0
-147 -166 0
-147 -185 0
-166 -185 0